r = [
0,25,24,18,94,100,106,164,30,86,28,0
];
p = [
0,24,27,30,17,14,28,29,9,11,8,0
];
e = [
0,15,18,5,15,16,10,16,3,2,6,0
];
d = [
0,49,74,48,111,161,134,229,39,140,128,255
];
d_bar = [
0,71,98,75,126,174,159,255,47,150,135,255
];
w = [
0,0.681818182,0.75,0.185185185,1,1.230769231,0.4,0.615384615,0.375,0.2,0.857142857,0
];
